p cnf 7230 16
1222 -1389 0
1222 -1392 0
1222 -1395 0
-1222 -1387 1388 0
1222 -1398 0
-1222 -1390 1391 0
-1222 -1393 1394 0
-1222 -1396 1397 0
-1388 1389 0
1396 -1398 0
1393 -1395 0
-1391 1392 0
1390 -1392 0
1387 -1389 0
-1394 1395 0
-1397 1398 0
